
Gurobi 9.1.0 (win64) logging started Mon Dec 14 20:13:53 2020

Changed value of parameter LogFile to logs/iteration1
   Prev:   Default: 
Gurobi Optimizer version 9.1.0 build v9.1.0rc0 (win64)
Thread count: 4 physical cores, 8 logical processors, using up to 8 threads
Optimize a model with 136 rows, 136 columns and 136 nonzeros
Model fingerprint: 0x79347e1b
Coefficient statistics:
  Matrix range     [1e+00, 1e+00]
  Objective range  [1e+03, 2e+03]
  Bounds range     [0e+00, 0e+00]
  RHS range        [1e+00, 1e+00]
Presolve removed 136 rows and 136 columns
Presolve time: 0.00s
Presolve: All rows and columns removed
Iteration    Objective       Primal Inf.    Dual Inf.      Time
       0    2.0563717e+05   0.000000e+00   0.000000e+00      0s

Solved in 0 iterations and 0.00 seconds
Optimal objective  2.056371667e+05

Solutionx[0] 1.000000 
x[1] 1.000000 
x[2] 1.000000 
x[3] 1.000000 
x[4] 1.000000 
x[5] 1.000000 
x[6] 1.000000 
x[7] 1.000000 
x[8] 1.000000 
x[9] 1.000000 
x[10] 1.000000 
x[11] 1.000000 
x[12] 1.000000 
x[13] 1.000000 
x[14] 1.000000 
x[15] 1.000000 
x[16] 1.000000 
x[17] 1.000000 
x[18] 1.000000 
x[19] 1.000000 
x[20] 1.000000 
x[21] 1.000000 
x[22] 1.000000 
x[23] 1.000000 
x[24] 1.000000 
x[25] 1.000000 
x[26] 1.000000 
x[27] 1.000000 
x[28] 1.000000 
x[29] 1.000000 
x[30] 1.000000 
x[31] 1.000000 
x[32] 1.000000 
x[33] 1.000000 
x[34] 1.000000 
x[35] 1.000000 
x[36] 1.000000 
x[37] 1.000000 
x[38] 1.000000 
x[39] 1.000000 
x[40] 1.000000 
x[41] 1.000000 
x[42] 1.000000 
x[43] 1.000000 
x[44] 1.000000 
x[45] 1.000000 
x[46] 1.000000 
x[47] 1.000000 
x[48] 1.000000 
x[49] 1.000000 
x[50] 1.000000 
x[51] 1.000000 
x[52] 1.000000 
x[53] 1.000000 
x[54] 1.000000 
x[55] 1.000000 
x[56] 1.000000 
x[57] 1.000000 
x[58] 1.000000 
x[59] 1.000000 
x[60] 1.000000 
x[61] 1.000000 
x[62] 1.000000 
x[63] 1.000000 
x[64] 1.000000 
x[65] 1.000000 
x[66] 1.000000 
x[67] 1.000000 
x[68] 1.000000 
x[69] 1.000000 
x[70] 1.000000 
x[71] 1.000000 
x[72] 1.000000 
x[73] 1.000000 
x[74] 1.000000 
x[75] 1.000000 
x[76] 1.000000 
x[77] 1.000000 
x[78] 1.000000 
x[79] 1.000000 
x[80] 1.000000 
x[81] 1.000000 
x[82] 1.000000 
x[83] 1.000000 
x[84] 1.000000 
x[85] 1.000000 
x[86] 1.000000 
x[87] 1.000000 
x[88] 1.000000 
x[89] 1.000000 
x[90] 1.000000 
x[91] 1.000000 
x[92] 1.000000 
x[93] 1.000000 
x[94] 1.000000 
x[95] 1.000000 
x[96] 1.000000 
x[97] 1.000000 
x[98] 1.000000 
x[99] 1.000000 
x[100] 1.000000 
x[101] 1.000000 
x[102] 1.000000 
x[103] 1.000000 
x[104] 1.000000 
x[105] 1.000000 
x[106] 1.000000 
x[107] 1.000000 
x[108] 1.000000 
x[109] 1.000000 
x[110] 1.000000 
x[111] 1.000000 
x[112] 1.000000 
x[113] 1.000000 
x[114] 1.000000 
x[115] 1.000000 
x[116] 1.000000 
x[117] 1.000000 
x[118] 1.000000 
x[119] 1.000000 
x[120] 1.000000 
x[121] 1.000000 
x[122] 1.000000 
x[123] 1.000000 
x[124] 1.000000 
x[125] 1.000000 
x[126] 1.000000 
x[127] 1.000000 
x[128] 1.000000 
x[129] 1.000000 
x[130] 1.000000 
x[131] 1.000000 
x[132] 1.000000 
x[133] 1.000000 
x[134] 1.000000 
x[135] 1.000000 
